p edge 100 1485
e 1 4
e 1 13
e 1 21
e 1 24
e 1 27
e 1 28
e 1 31
e 1 32
e 1 33
e 1 41
e 1 42
e 1 44
e 1 50
e 1 52
e 1 54
e 1 55
e 1 58
e 1 59
e 1 65
e 1 72
e 1 76
e 1 79
e 1 82
e 1 84
e 1 90
e 1 92
e 1 93
e 2 3
e 2 8
e 2 13
e 2 14
e 2 17
e 2 18
e 2 20
e 2 27
e 2 29
e 2 45
e 2 46
e 2 59
e 2 62
e 2 64
e 2 68
e 2 71
e 2 73
e 2 75
e 2 76
e 2 85
e 2 88
e 2 89
e 2 90
e 2 93
e 2 98
e 3 6
e 3 7
e 3 10
e 3 13
e 3 22
e 3 24
e 3 26
e 3 27
e 3 28
e 3 30
e 3 34
e 3 38
e 3 40
e 3 43
e 3 44
e 3 47
e 3 49
e 3 53
e 3 55
e 3 56
e 3 63
e 3 65
e 3 72
e 3 73
e 3 77
e 3 86
e 3 87
e 3 88
e 3 90
e 3 96
e 4 6
e 4 10
e 4 11
e 4 13
e 4 19
e 4 20
e 4 21
e 4 26
e 4 30
e 4 32
e 4 33
e 4 34
e 4 35
e 4 36
e 4 41
e 4 49
e 4 52
e 4 58
e 4 64
e 4 67
e 4 71
e 4 72
e 4 73
e 4 76
e 4 78
e 4 83
e 4 84
e 4 87
e 4 89
e 4 90
e 4 94
e 4 98
e 5 6
e 5 10
e 5 11
e 5 12
e 5 15
e 5 23
e 5 26
e 5 30
e 5 31
e 5 32
e 5 33
e 5 35
e 5 36
e 5 44
e 5 47
e 5 49
e 5 50
e 5 59
e 5 63
e 5 67
e 5 68
e 5 71
e 5 75
e 5 76
e 5 78
e 5 79
e 5 82
e 5 84
e 5 85
e 5 86
e 5 87
e 5 89
e 5 91
e 5 92
e 5 95
e 5 100
e 6 7
e 6 11
e 6 16
e 6 19
e 6 21
e 6 23
e 6 33
e 6 42
e 6 43
e 6 46
e 6 50
e 6 55
e 6 57
e 6 58
e 6 60
e 6 61
e 6 66
e 6 67
e 6 72
e 6 73
e 6 76
e 6 83
e 6 84
e 6 89
e 6 95
e 6 96
e 6 98
e 6 99
e 7 13
e 7 15
e 7 16
e 7 20
e 7 23
e 7 29
e 7 30
e 7 34
e 7 37
e 7 41
e 7 42
e 7 50
e 7 51
e 7 52
e 7 63
e 7 65
e 7 66
e 7 69
e 7 74
e 7 75
e 7 84
e 7 85
e 7 86
e 7 91
e 7 95
e 7 97
e 7 98
e 7 100
e 8 20
e 8 26
e 8 30
e 8 33
e 8 34
e 8 35
e 8 36
e 8 37
e 8 44
e 8 51
e 8 55
e 8 61
e 8 66
e 8 67
e 8 68
e 8 70
e 8 71
e 8 73
e 8 74
e 8 75
e 8 76
e 8 77
e 8 79
e 8 82
e 8 85
e 8 86
e 8 90
e 8 93
e 8 98
e 8 99
e 8 100
e 9 11
e 9 14
e 9 19
e 9 20
e 9 21
e 9 22
e 9 24
e 9 25
e 9 26
e 9 29
e 9 30
e 9 33
e 9 34
e 9 37
e 9 39
e 9 41
e 9 42
e 9 43
e 9 45
e 9 47
e 9 48
e 9 52
e 9 56
e 9 57
e 9 59
e 9 64
e 9 66
e 9 69
e 9 77
e 9 82
e 9 86
e 9 88
e 10 12
e 10 13
e 10 14
e 10 19
e 10 28
e 10 34
e 10 37
e 10 38
e 10 45
e 10 46
e 10 53
e 10 67
e 10 70
e 10 71
e 10 74
e 10 91
e 10 92
e 10 94
e 10 96
e 10 97
e 10 100
e 11 20
e 11 23
e 11 25
e 11 26
e 11 28
e 11 30
e 11 31
e 11 34
e 11 35
e 11 36
e 11 38
e 11 40
e 11 46
e 11 55
e 11 56
e 11 57
e 11 64
e 11 68
e 11 71
e 11 72
e 11 73
e 11 75
e 11 76
e 11 79
e 11 81
e 11 87
e 11 88
e 11 89
e 11 93
e 11 99
e 12 16
e 12 18
e 12 19
e 12 20
e 12 23
e 12 24
e 12 28
e 12 32
e 12 34
e 12 35
e 12 36
e 12 39
e 12 44
e 12 54
e 12 56
e 12 57
e 12 58
e 12 60
e 12 63
e 12 69
e 12 72
e 12 78
e 12 79
e 12 80
e 12 83
e 12 86
e 12 88
e 12 93
e 12 94
e 12 100
e 13 14
e 13 16
e 13 18
e 13 21
e 13 23
e 13 24
e 13 25
e 13 31
e 13 37
e 13 39
e 13 45
e 13 47
e 13 53
e 13 58
e 13 59
e 13 62
e 13 64
e 13 69
e 13 72
e 13 81
e 13 87
e 13 93
e 13 98
e 13 100
e 14 15
e 14 16
e 14 17
e 14 18
e 14 24
e 14 26
e 14 29
e 14 31
e 14 32
e 14 35
e 14 42
e 14 43
e 14 44
e 14 53
e 14 54
e 14 57
e 14 60
e 14 65
e 14 67
e 14 70
e 14 71
e 14 72
e 14 74
e 14 81
e 14 82
e 14 85
e 14 89
e 14 90
e 14 92
e 14 93
e 14 96
e 14 98
e 15 20
e 15 21
e 15 23
e 15 26
e 15 27
e 15 30
e 15 32
e 15 33
e 15 34
e 15 35
e 15 36
e 15 44
e 15 49
e 15 51
e 15 55
e 15 58
e 15 67
e 15 77
e 15 78
e 15 81
e 15 82
e 15 90
e 15 92
e 15 97
e 16 21
e 16 22
e 16 23
e 16 24
e 16 30
e 16 39
e 16 46
e 16 49
e 16 56
e 16 57
e 16 58
e 16 59
e 16 64
e 16 67
e 16 74
e 16 81
e 16 82
e 16 85
e 16 86
e 16 88
e 16 90
e 16 93
e 16 97
e 16 100
e 17 18
e 17 21
e 17 25
e 17 26
e 17 28
e 17 32
e 17 35
e 17 36
e 17 40
e 17 44
e 17 46
e 17 60
e 17 61
e 17 63
e 17 64
e 17 67
e 17 70
e 17 74
e 17 77
e 17 79
e 17 81
e 17 85
e 17 86
e 17 91
e 17 94
e 18 21
e 18 22
e 18 31
e 18 32
e 18 36
e 18 38
e 18 40
e 18 44
e 18 47
e 18 50
e 18 56
e 18 57
e 18 61
e 18 67
e 18 70
e 18 76
e 18 77
e 18 78
e 18 81
e 18 82
e 18 83
e 18 86
e 18 91
e 18 95
e 18 97
e 18 100
e 19 20
e 19 24
e 19 26
e 19 31
e 19 35
e 19 36
e 19 39
e 19 40
e 19 43
e 19 48
e 19 50
e 19 52
e 19 54
e 19 59
e 19 62
e 19 66
e 19 79
e 19 80
e 19 83
e 19 85
e 19 89
e 19 94
e 20 23
e 20 25
e 20 27
e 20 30
e 20 32
e 20 37
e 20 44
e 20 46
e 20 58
e 20 60
e 20 63
e 20 65
e 20 67
e 20 70
e 20 73
e 20 77
e 20 78
e 20 80
e 20 82
e 20 92
e 20 98
e 21 22
e 21 25
e 21 26
e 21 28
e 21 29
e 21 30
e 21 31
e 21 33
e 21 34
e 21 42
e 21 44
e 21 48
e 21 50
e 21 56
e 21 59
e 21 60
e 21 62
e 21 64
e 21 65
e 21 67
e 21 72
e 21 74
e 21 77
e 21 79
e 21 82
e 21 83
e 21 86
e 21 88
e 21 89
e 21 91
e 21 99
e 21 100
e 22 25
e 22 26
e 22 34
e 22 36
e 22 37
e 22 39
e 22 42
e 22 51
e 22 62
e 22 64
e 22 71
e 22 75
e 22 78
e 22 81
e 22 88
e 22 89
e 22 90
e 22 93
e 22 95
e 22 96
e 23 24
e 23 26
e 23 31
e 23 37
e 23 38
e 23 39
e 23 41
e 23 47
e 23 54
e 23 55
e 23 56
e 23 57
e 23 60
e 23 68
e 23 69
e 23 70
e 23 73
e 23 75
e 23 77
e 23 78
e 23 79
e 23 85
e 23 86
e 23 87
e 23 88
e 23 89
e 23 91
e 23 93
e 23 94
e 23 98
e 23 99
e 24 26
e 24 30
e 24 36
e 24 48
e 24 54
e 24 63
e 24 66
e 24 71
e 24 74
e 24 80
e 24 82
e 24 84
e 24 94
e 25 28
e 25 31
e 25 33
e 25 42
e 25 44
e 25 45
e 25 47
e 25 49
e 25 50
e 25 54
e 25 57
e 25 58
e 25 62
e 25 63
e 25 64
e 25 68
e 25 71
e 25 72
e 25 76
e 25 77
e 25 88
e 25 91
e 25 100
e 26 34
e 26 35
e 26 40
e 26 47
e 26 48
e 26 55
e 26 56
e 26 59
e 26 67
e 26 69
e 26 76
e 26 81
e 26 86
e 26 97
e 26 100
e 27 28
e 27 31
e 27 34
e 27 36
e 27 37
e 27 38
e 27 41
e 27 43
e 27 44
e 27 47
e 27 57
e 27 58
e 27 60
e 27 61
e 27 63
e 27 69
e 27 71
e 27 72
e 27 74
e 27 77
e 27 79
e 27 82
e 27 94
e 27 96
e 28 31
e 28 42
e 28 43
e 28 46
e 28 47
e 28 50
e 28 54
e 28 58
e 28 61
e 28 62
e 28 63
e 28 64
e 28 66
e 28 70
e 28 71
e 28 76
e 28 85
e 28 86
e 28 89
e 28 95
e 28 97
e 29 35
e 29 36
e 29 49
e 29 53
e 29 62
e 29 65
e 29 67
e 29 75
e 29 76
e 29 82
e 29 84
e 29 90
e 29 94
e 29 95
e 29 98
e 29 99
e 30 31
e 30 34
e 30 37
e 30 38
e 30 40
e 30 42
e 30 45
e 30 46
e 30 48
e 30 51
e 30 54
e 30 55
e 30 57
e 30 59
e 30 60
e 30 62
e 30 65
e 30 67
e 30 69
e 30 74
e 30 77
e 30 86
e 30 87
e 30 90
e 30 91
e 30 94
e 30 99
e 30 100
e 31 44
e 31 46
e 31 47
e 31 50
e 31 51
e 31 56
e 31 57
e 31 59
e 31 60
e 31 63
e 31 67
e 31 69
e 31 75
e 31 84
e 31 89
e 31 97
e 32 39
e 32 40
e 32 43
e 32 46
e 32 55
e 32 58
e 32 59
e 32 61
e 32 63
e 32 68
e 32 69
e 32 72
e 32 73
e 32 81
e 32 84
e 32 86
e 32 94
e 32 100
e 33 45
e 33 48
e 33 54
e 33 58
e 33 60
e 33 61
e 33 66
e 33 69
e 33 71
e 33 77
e 33 78
e 33 87
e 33 90
e 33 91
e 33 94
e 33 95
e 34 41
e 34 42
e 34 49
e 34 50
e 34 53
e 34 54
e 34 57
e 34 59
e 34 63
e 34 65
e 34 70
e 34 72
e 34 77
e 34 81
e 34 84
e 34 90
e 34 95
e 34 96
e 35 43
e 35 44
e 35 48
e 35 55
e 35 57
e 35 59
e 35 60
e 35 61
e 35 63
e 35 71
e 35 73
e 35 74
e 35 75
e 35 85
e 35 91
e 35 96
e 35 98
e 36 39
e 36 43
e 36 46
e 36 47
e 36 48
e 36 49
e 36 50
e 36 59
e 36 66
e 36 68
e 36 71
e 36 72
e 36 77
e 36 80
e 36 82
e 36 88
e 36 89
e 36 92
e 36 94
e 36 95
e 36 96
e 36 99
e 37 40
e 37 43
e 37 45
e 37 49
e 37 51
e 37 53
e 37 60
e 37 63
e 37 67
e 37 71
e 37 74
e 37 78
e 37 80
e 37 82
e 37 93
e 37 100
e 38 42
e 38 45
e 38 48
e 38 51
e 38 52
e 38 53
e 38 54
e 38 56
e 38 58
e 38 62
e 38 66
e 38 71
e 38 73
e 38 76
e 38 78
e 38 89
e 38 92
e 38 100
e 39 40
e 39 49
e 39 51
e 39 52
e 39 53
e 39 56
e 39 58
e 39 62
e 39 64
e 39 68
e 39 74
e 39 81
e 39 83
e 39 85
e 39 90
e 39 93
e 39 98
e 40 42
e 40 45
e 40 47
e 40 49
e 40 52
e 40 59
e 40 61
e 40 64
e 40 67
e 40 68
e 40 72
e 40 73
e 40 74
e 40 77
e 40 80
e 40 85
e 40 86
e 40 91
e 40 93
e 40 94
e 40 95
e 40 96
e 40 99
e 41 42
e 41 46
e 41 47
e 41 50
e 41 52
e 41 55
e 41 60
e 41 65
e 41 67
e 41 69
e 41 70
e 41 72
e 41 74
e 41 76
e 41 79
e 41 89
e 41 92
e 41 95
e 41 96
e 41 97
e 42 43
e 42 44
e 42 50
e 42 51
e 42 53
e 42 55
e 42 58
e 42 62
e 42 66
e 42 69
e 42 73
e 42 75
e 42 78
e 42 79
e 42 83
e 42 86
e 42 90
e 42 91
e 42 94
e 42 99
e 43 49
e 43 53
e 43 54
e 43 55
e 43 58
e 43 63
e 43 70
e 43 74
e 43 76
e 43 78
e 43 82
e 43 83
e 43 87
e 43 93
e 43 96
e 43 99
e 43 100
e 44 47
e 44 50
e 44 51
e 44 58
e 44 59
e 44 66
e 44 67
e 44 72
e 44 77
e 44 82
e 44 83
e 44 84
e 44 85
e 44 86
e 44 87
e 44 88
e 44 90
e 44 97
e 45 46
e 45 48
e 45 49
e 45 50
e 45 52
e 45 56
e 45 57
e 45 62
e 45 68
e 45 70
e 45 74
e 45 78
e 45 79
e 45 83
e 45 88
e 45 93
e 45 95
e 45 100
e 46 47
e 46 58
e 46 59
e 46 62
e 46 72
e 46 73
e 46 74
e 46 81
e 46 82
e 46 85
e 46 87
e 46 90
e 46 96
e 47 48
e 47 52
e 47 53
e 47 54
e 47 55
e 47 56
e 47 62
e 47 63
e 47 65
e 47 66
e 47 70
e 47 74
e 47 75
e 47 78
e 47 85
e 47 97
e 47 100
e 48 51
e 48 59
e 48 61
e 48 64
e 48 65
e 48 66
e 48 68
e 48 70
e 48 77
e 48 80
e 48 82
e 48 83
e 48 84
e 48 86
e 48 87
e 48 88
e 48 93
e 49 52
e 49 53
e 49 59
e 49 62
e 49 66
e 49 67
e 49 77
e 49 83
e 49 85
e 49 87
e 49 90
e 49 94
e 50 53
e 50 54
e 50 56
e 50 57
e 50 59
e 50 66
e 50 69
e 50 71
e 50 72
e 50 80
e 50 81
e 50 85
e 50 87
e 50 88
e 50 90
e 50 97
e 50 98
e 51 59
e 51 69
e 51 70
e 51 71
e 51 75
e 51 77
e 51 78
e 51 82
e 51 87
e 51 88
e 51 89
e 51 90
e 51 91
e 51 94
e 51 97
e 51 100
e 52 53
e 52 61
e 52 62
e 52 63
e 52 74
e 52 81
e 52 86
e 52 87
e 52 96
e 52 98
e 53 55
e 53 56
e 53 57
e 53 65
e 53 67
e 53 70
e 53 73
e 53 77
e 53 78
e 53 80
e 53 88
e 53 91
e 53 95
e 53 96
e 53 99
e 54 56
e 54 61
e 54 63
e 54 64
e 54 74
e 54 76
e 54 77
e 54 81
e 54 85
e 54 88
e 54 90
e 54 95
e 54 99
e 55 56
e 55 57
e 55 60
e 55 61
e 55 63
e 55 65
e 55 66
e 55 67
e 55 72
e 55 73
e 55 78
e 55 85
e 55 86
e 55 92
e 55 97
e 55 98
e 55 99
e 56 57
e 56 59
e 56 61
e 56 72
e 56 77
e 56 84
e 56 86
e 56 87
e 56 92
e 56 93
e 57 60
e 57 62
e 57 64
e 57 72
e 57 74
e 57 91
e 57 94
e 57 98
e 57 99
e 58 65
e 58 68
e 58 69
e 58 70
e 58 71
e 58 72
e 58 73
e 58 77
e 58 79
e 58 80
e 58 82
e 58 86
e 58 87
e 58 88
e 58 90
e 58 92
e 58 94
e 58 97
e 58 98
e 58 99
e 59 61
e 59 67
e 59 68
e 59 72
e 59 74
e 59 76
e 59 79
e 59 87
e 59 91
e 59 93
e 60 61
e 60 67
e 60 71
e 60 73
e 60 76
e 60 77
e 60 82
e 60 83
e 60 85
e 60 88
e 60 90
e 60 91
e 60 94
e 60 98
e 61 64
e 61 65
e 61 70
e 61 72
e 61 77
e 61 80
e 61 82
e 61 85
e 61 86
e 61 89
e 61 93
e 61 95
e 61 98
e 62 64
e 62 65
e 62 67
e 62 77
e 62 85
e 62 88
e 62 90
e 62 97
e 63 64
e 63 65
e 63 70
e 63 72
e 63 74
e 63 76
e 63 79
e 63 84
e 63 86
e 63 90
e 63 92
e 63 94
e 63 96
e 63 97
e 63 99
e 64 65
e 64 68
e 64 71
e 64 76
e 64 78
e 64 83
e 64 89
e 64 94
e 64 98
e 64 99
e 64 100
e 65 67
e 65 68
e 65 69
e 65 83
e 65 86
e 65 95
e 65 98
e 65 99
e 66 69
e 66 70
e 66 72
e 66 77
e 66 80
e 66 84
e 66 89
e 66 96
e 66 99
e 66 100
e 67 69
e 67 73
e 67 74
e 67 75
e 67 82
e 67 84
e 67 86
e 67 88
e 67 91
e 67 96
e 68 70
e 68 72
e 68 82
e 69 70
e 69 71
e 69 73
e 69 74
e 69 75
e 69 76
e 69 77
e 69 80
e 69 83
e 69 84
e 69 91
e 70 79
e 70 83
e 70 86
e 70 90
e 70 93
e 70 94
e 70 95
e 70 96
e 70 99
e 71 73
e 71 75
e 71 78
e 71 79
e 71 85
e 71 87
e 71 88
e 71 89
e 71 98
e 71 100
e 72 73
e 72 77
e 72 78
e 72 79
e 72 81
e 72 82
e 72 84
e 72 85
e 72 90
e 73 78
e 73 81
e 73 83
e 73 84
e 73 87
e 73 88
e 73 91
e 73 94
e 73 95
e 73 97
e 73 99
e 74 78
e 74 81
e 74 83
e 74 88
e 74 100
e 75 87
e 75 91
e 75 92
e 75 94
e 75 95
e 75 99
e 76 77
e 76 79
e 76 80
e 76 84
e 76 87
e 76 88
e 76 99
e 77 83
e 77 84
e 77 88
e 77 91
e 77 97
e 78 81
e 78 87
e 78 90
e 78 91
e 78 96
e 78 100
e 79 80
e 79 83
e 79 87
e 79 88
e 79 92
e 79 95
e 79 96
e 79 100
e 80 83
e 80 86
e 80 87
e 80 88
e 80 89
e 80 90
e 80 92
e 80 94
e 81 86
e 81 87
e 81 89
e 81 94
e 81 97
e 81 100
e 82 85
e 82 91
e 82 93
e 82 95
e 82 99
e 83 87
e 83 89
e 83 91
e 83 93
e 83 96
e 83 98
e 84 86
e 84 87
e 84 92
e 84 93
e 84 96
e 84 97
e 85 89
e 85 90
e 85 100
e 86 87
e 86 92
e 86 96
e 86 98
e 86 99
e 87 90
e 87 92
e 87 93
e 87 95
e 88 90
e 88 94
e 89 98
e 89 99
e 90 95
e 90 98
e 90 99
e 90 100
e 91 97
e 91 98
e 91 100
e 94 95
e 94 97
e 94 99
e 95 98
e 95 99
e 96 100
e 97 98
e 97 99
e 97 100
e 98 99
e 98 100
